Figure: large_3
File Number: 8
Nodes: 300
Edges: 22472
Max Generations: 1000
Population Size: 100
Mutation Rate: 0.01
Colors Used: 186
Runtime: 6.18

Generation,Average Fitness,Best Fitness
0,120.2,93
1,117.68,93
2,112.9,88
3,111.35,79
4,106.95,79
5,103.87,76
6,100.81,76
7,97.95,71
8,91.93,70
9,88.03,70
10,83.67,68
11,79.66,67
12,76.53,64
13,74.75,63
14,73.02,60
15,72.4,60
16,70.27,60
17,69.6,60
18,68.95,60
19,68.17,59
20,67.62,57
21,66.38,57
22,64.83,54
23,64.24,54
24,63.21,52
25,61.55,51
26,59.89,51
27,58.77,50
28,58.27,50
29,57.24,48
30,57.15,48
31,56.63,47
32,55.56,46
33,55.5,46
34,54.64,46
35,53.72,43
36,52.24,43
37,52.0,43
38,51.67,42
39,51.64,41
40,51.42,41
41,51.16,41
42,50.14,41
43,49.59,38
44,49.06,38
45,48.61,38
46,48.6,36
47,47.51,36
48,47.01,35
49,46.51,35
50,46.3,33
51,45.12,32
52,44.34,32
53,43.39,32
54,42.99,32
55,42.67,31
56,42.17,31
57,41.42,31
58,40.95,31
59,40.0,31
60,40.48,31
61,40.31,31
62,40.24,30
63,39.11,30
64,38.81,28
65,38.72,28
66,38.75,28
67,37.78,28
68,36.83,28
69,35.46,28
70,35.81,28
71,35.53,26
72,34.32,25
73,33.32,25
74,32.98,25
75,32.51,25
76,32.76,23
77,32.0,23
78,32.68,22
79,32.49,22
80,31.83,21
81,31.61,21
82,31.17,21
83,31.15,21
84,30.93,20
85,30.64,20
86,30.64,20
87,30.05,20
88,30.0,20
89,30.04,19
90,29.83,19
91,29.42,19
92,28.53,19
93,27.71,19
94,27.07,16
95,26.65,16
96,26.46,15
97,25.57,15
98,25.83,15
99,25.97,15
100,26.27,15
101,25.9,15
102,25.65,15
103,25.71,13
104,26.78,13
105,26.7,13
106,25.77,13
107,25.15,13
108,24.99,13
109,24.2,13
110,24.12,13
111,23.94,13
112,23.1,13
113,23.01,13
114,23.27,13
115,23.98,13
116,23.13,13
117,23.22,12
118,22.34,12
119,21.58,12
120,21.75,12
121,21.37,12
122,20.83,12
123,20.42,12
124,20.4,12
125,21.71,12
126,21.28,12
127,21.23,12
128,20.99,11
129,20.62,11
130,20.65,11
131,20.85,11
132,21.01,11
133,20.47,11
134,20.56,11
135,19.62,11
136,19.42,10
137,19.3,10
138,18.74,10
139,18.33,10
140,18.06,10
141,17.63,10
142,17.55,10
143,17.64,10
144,18.19,10
145,18.43,10
146,18.8,10
147,19.12,10
148,19.37,10
149,19.64,9
150,19.41,9
151,18.83,9
152,19.43,9
153,19.8,9
154,20.59,9
155,20.7,9
156,20.39,9
157,21.22,9
158,20.31,9
159,20.33,9
160,20.39,9
161,19.94,9
162,19.63,9
163,19.92,9
164,19.62,9
165,19.08,9
166,18.56,9
167,18.26,9
168,17.56,9
169,17.66,9
170,17.24,9
171,17.14,9
172,17.5,9
173,17.98,9
174,17.9,9
175,18.71,9
176,18.66,9
177,18.98,9
178,18.88,9
179,19.46,9
180,18.95,9
181,18.8,9
182,18.6,9
183,18.05,9
184,17.16,9
185,17.11,9
186,17.57,9
187,17.54,9
188,17.2,9
189,16.79,9
190,17.68,9
191,18.36,9
192,18.7,9
193,17.81,9
194,18.09,9
195,18.45,9
196,18.26,9
197,18.5,9
198,18.68,9
199,18.73,9
200,18.04,9
201,18.64,9
202,19.05,9
203,19.27,9
204,19.65,9
205,19.57,9
206,18.87,9
207,18.51,9
208,18.68,9
209,18.87,9
210,19.51,9
211,19.48,9
212,19.28,9
213,20.12,9
214,19.52,9
215,19.12,8
216,18.67,8
217,18.2,8
218,18.09,8
219,17.67,8
220,17.85,8
221,17.6,8
222,17.78,8
223,17.11,8
224,16.58,8
225,16.82,8
226,16.99,8
227,16.48,8
228,15.87,8
229,16.23,8
230,16.13,8
231,16.74,8
232,16.48,8
233,17.34,8
234,17.36,8
235,16.78,8
236,16.64,8
237,16.01,8
238,16.4,8
239,16.86,8
240,17.47,8
241,17.33,8
242,16.59,8
243,16.95,8
244,16.73,8
245,17.76,8
246,17.44,8
247,17.84,8
248,17.1,8
249,17.53,8
250,16.81,8
251,17.73,8
252,18.65,8
253,18.7,8
254,18.61,8
255,19.46,8
256,18.3,8
257,17.88,8
258,16.54,8
259,16.75,8
260,17.46,8
261,17.82,8
262,18.25,8
263,18.21,8
264,17.91,8
265,18.13,7
266,18.42,7
267,19.12,7
268,19.47,7
269,19.39,7
270,20.15,7
271,19.55,7
272,19.79,7
273,19.78,7
274,19.82,7
275,19.6,7
276,19.57,7
277,19.3,7
278,19.07,7
279,18.97,7
280,18.48,7
281,17.08,7
282,16.88,7
283,16.84,7
284,17.06,7
285,17.94,7
286,18.17,7
287,18.89,7
288,19.31,7
289,19.2,7
290,19.94,7
291,20.43,7
292,19.93,7
293,19.26,7
294,19.24,7
295,19.14,7
296,18.77,7
297,18.52,7
298,18.35,7
299,17.73,7
300,17.14,7
301,16.76,7
302,17.0,7
303,17.29,7
304,17.06,7
305,17.39,7
306,17.65,7
307,17.38,7
308,16.78,7
309,16.65,7
310,16.62,7
311,15.78,7
312,16.49,7
313,16.5,7
314,16.31,7
315,16.04,7
316,15.91,7
317,15.93,7
318,15.8,7
319,16.25,7
320,16.05,7
321,15.98,7
322,15.62,7
323,15.03,7
324,15.07,7
325,15.15,7
326,15.8,7
327,16.52,7
328,16.55,7
329,16.5,7
330,17.58,7
331,17.08,7
332,17.22,7
333,17.24,7
334,16.77,7
335,17.08,7
336,16.54,7
337,16.77,7
338,16.74,7
339,17.13,7
340,17.43,7
341,18.46,7
342,18.63,7
343,17.99,7
344,18.4,7
345,18.68,7
346,18.26,7
347,17.64,7
348,17.35,7
349,18.27,7
350,17.39,7
351,17.25,7
352,16.72,7
353,15.95,6
354,16.08,6
355,15.85,6
356,16.07,6
357,16.2,6
358,16.21,6
359,16.49,6
360,17.03,6
361,17.5,6
362,16.78,6
363,17.18,6
364,17.79,6
365,16.97,6
366,16.19,6
367,16.32,6
368,16.37,6
369,16.92,6
370,16.53,6
371,17.13,6
372,16.78,6
373,16.12,6
374,15.33,6
375,15.94,6
376,16.22,6
377,16.73,6
378,16.26,6
379,15.88,6
380,15.27,6
381,14.68,6
382,15.36,6
383,14.98,6
384,14.73,6
385,15.4,6
386,15.5,6
387,15.81,6
388,16.14,6
389,15.76,6
390,15.38,6
391,15.49,6
392,15.47,6
393,15.15,6
394,15.86,6
395,16.11,6
396,16.59,6
397,16.74,6
398,16.89,6
399,16.96,6
400,17.24,6
401,16.51,6
402,16.05,6
403,15.84,6
404,16.25,6
405,16.33,6
406,16.91,6
407,17.27,6
408,17.04,6
409,17.07,6
410,17.54,6
411,17.12,6
412,17.16,6
413,17.09,6
414,17.19,6
415,17.89,6
416,17.88,6
417,17.13,6
418,16.14,6
419,16.11,6
420,15.83,6
421,15.7,6
422,15.59,6
423,16.08,6
424,16.35,6
425,17.19,6
426,16.39,6
427,16.51,6
428,16.59,6
429,16.18,6
430,16.15,6
431,16.78,6
432,17.16,6
433,17.92,6
434,17.74,6
435,17.61,6
436,17.66,6
437,17.78,6
438,17.62,6
439,17.44,6
440,18.1,6
441,18.48,6
442,18.29,6
443,18.03,6
444,17.74,6
445,17.73,6
446,17.68,6
447,17.29,6
448,16.69,6
449,16.05,6
450,15.58,5
451,15.56,5
452,15.51,5
453,15.11,5
454,14.82,5
455,15.33,5
456,16.16,5
457,15.84,5
458,15.16,5
459,14.82,5
460,14.43,5
461,13.3,5
462,13.82,5
463,14.25,5
464,14.41,5
465,14.38,4
466,14.5,4
467,14.76,4
468,14.27,4
469,13.71,4
470,13.58,4
471,13.52,3
472,14.01,3
473,13.7,3
474,14.53,3
475,14.0,3
476,14.4,3
477,13.58,3
478,13.95,3
479,13.8,3
480,13.69,3
481,13.28,3
482,13.4,3
483,13.36,3
484,13.42,3
485,13.47,3
486,13.59,3
487,14.32,3
488,14.42,3
489,13.78,3
490,13.2,3
491,12.79,3
492,13.07,3
493,11.98,3
494,11.88,3
495,11.49,3
496,12.07,3
497,12.22,3
498,13.51,3
499,13.7,3
500,13.48,3
501,13.66,3
502,14.4,3
503,15.06,3
504,15.33,3
505,15.6,3
506,15.25,3
507,15.4,3
508,15.15,3
509,15.33,3
510,15.36,3
511,14.74,3
512,15.4,3
513,15.1,3
514,14.82,3
515,15.0,3
516,14.88,3
517,13.47,3
518,13.22,3
519,13.24,3
520,13.26,3
521,12.6,3
522,11.83,3
523,12.3,3
524,12.32,3
525,12.79,3
526,13.44,3
527,13.78,3
528,13.63,3
529,14.12,3
530,14.36,3
531,15.07,3
532,15.13,3
533,14.69,3
534,14.98,3
535,14.81,3
536,15.22,3
537,13.94,3
538,14.19,3
539,14.26,3
540,14.53,3
541,15.03,3
542,14.24,3
543,14.44,3
544,14.27,3
545,13.7,3
546,14.35,3
547,15.02,3
548,14.64,3
549,14.75,3
550,14.81,3
551,14.97,3
552,14.58,3
553,14.23,3
554,14.02,3
555,14.31,3
556,13.46,3
557,14.12,3
558,14.55,3
559,13.52,3
560,13.72,3
561,14.51,3
562,15.75,3
563,15.34,3
564,15.04,3
565,14.65,3
566,13.83,2
567,13.44,2
568,12.63,2
569,13.28,2
570,13.42,2
571,13.88,2
572,13.78,2
573,13.53,2
574,14.55,2
575,14.57,2
576,15.01,2
577,15.36,2
578,15.45,2
579,15.6,2
580,15.16,2
581,14.36,2
582,14.3,2
583,13.73,2
584,13.09,2
585,13.77,2
586,13.58,2
587,14.0,2
588,13.78,2
589,14.11,2
590,13.8,2
591,14.12,2
592,13.96,2
593,13.56,2
594,12.55,2
595,12.53,2
596,12.59,2
597,12.36,2
598,12.89,2
599,13.27,2
600,12.82,2
601,12.58,2
602,12.13,2
603,12.07,2
604,11.97,2
605,12.23,2
606,11.81,2
607,11.73,2
608,10.79,2
609,11.48,2
610,11.67,2
611,11.86,2
612,11.79,2
613,12.04,2
614,12.8,2
615,12.66,2
616,12.35,2
617,12.53,2
618,11.97,2
619,11.77,2
620,12.74,2
621,12.52,2
622,12.01,2
623,12.3,2
624,12.55,2
625,13.1,2
626,12.18,2
627,12.79,2
628,11.99,2
629,12.13,2
630,11.95,2
631,11.93,2
632,12.59,2
633,12.58,2
634,13.38,2
635,13.84,2
636,13.0,2
637,12.61,2
638,12.53,2
639,11.56,2
640,11.73,2
641,11.16,2
642,10.94,2
643,10.64,2
644,10.51,2
645,10.76,2
646,10.24,2
647,10.45,2
648,10.64,2
649,12.08,2
650,11.89,2
651,12.32,2
652,11.84,2
653,12.48,2
654,12.68,2
655,12.74,2
656,12.38,2
657,12.96,2
658,13.29,2
659,13.01,2
660,12.31,2
661,12.37,2
662,12.85,2
663,13.03,2
664,13.23,2
665,12.8,2
666,13.37,2
667,13.72,2
668,14.09,2
669,13.77,2
670,14.0,2
671,14.58,2
672,14.44,2
673,14.17,2
674,14.77,2
675,15.27,2
676,14.56,2
677,14.28,2
678,13.6,2
679,13.0,2
680,13.23,2
681,12.89,2
682,12.43,2
683,12.45,2
684,12.2,2
685,12.0,2
686,12.22,2
687,12.34,2
688,12.5,2
689,12.83,2
690,13.06,2
691,12.15,2
692,11.05,2
693,11.6,2
694,11.12,2
695,11.11,2
696,10.26,2
697,10.09,2
698,10.89,2
699,11.61,2
700,12.47,2
701,12.0,2
702,12.49,2
703,12.56,2
704,12.75,2
705,12.52,2
706,12.52,2
707,12.94,2
708,12.81,2
709,12.87,2
710,12.68,2
711,12.73,2
712,12.56,2
713,12.47,2
714,11.96,2
715,12.79,2
716,12.53,2
717,12.62,2
718,12.79,2
719,12.75,2
720,12.69,2
721,12.57,2
722,12.42,2
723,13.24,2
724,12.83,2
725,12.72,2
726,12.66,2
727,13.48,2
728,13.53,2
729,14.41,2
730,14.51,2
731,14.65,2
732,14.75,2
733,14.71,2
734,14.82,2
735,14.31,2
736,14.41,2
737,14.01,2
738,14.89,2
739,15.24,2
740,15.75,2
741,14.99,2
742,13.48,2
743,12.87,2
744,13.21,2
745,13.4,2
746,13.5,2
747,13.74,2
748,13.71,2
749,13.82,2
750,13.76,2
751,13.82,2
752,13.8,2
753,13.05,2
754,12.19,2
755,12.54,2
756,12.22,2
757,11.85,2
758,11.72,2
759,11.24,2
760,12.03,2
761,12.53,2
762,11.91,2
763,11.49,2
764,12.07,2
765,12.37,2
766,12.48,2
767,12.54,2
768,12.28,2
769,12.42,2
770,12.63,2
771,12.7,2
772,12.59,2
773,12.46,2
774,12.6,2
775,12.68,2
776,13.02,2
777,12.69,2
778,12.75,2
779,12.4,2
780,12.6,2
781,12.86,2
782,12.96,2
783,12.55,2
784,13.1,2
785,13.45,2
786,13.76,2
787,13.87,2
788,14.28,2
789,14.13,2
790,14.11,2
791,13.98,2
792,13.42,2
793,13.34,2
794,13.82,2
795,13.44,2
796,13.09,2
797,13.04,2
798,12.94,2
799,13.29,2
800,13.13,2
801,13.45,2
802,13.26,2
803,13.25,2
804,12.96,2
805,13.2,2
806,13.12,2
807,13.42,2
808,13.46,2
809,12.51,2
810,12.67,2
811,12.74,2
812,12.88,2
813,12.63,2
814,12.83,2
815,13.26,2
816,13.55,2
817,13.54,2
818,13.92,2
819,14.16,2
820,14.31,2
821,13.86,2
822,13.08,2
823,12.71,2
824,12.94,2
825,12.98,2
826,13.34,2
827,14.33,2
828,14.08,2
829,14.85,2
830,15.77,2
831,15.15,2
832,14.58,2
833,12.99,2
834,12.85,2
835,13.56,2
836,13.06,2
837,12.77,2
838,12.79,2
839,12.78,2
840,13.12,2
841,12.75,2
842,12.77,2
843,12.78,2
844,12.73,2
845,12.39,2
846,12.3,2
847,13.07,2
848,13.47,2
849,13.82,2
850,14.69,2
851,14.61,2
852,13.94,2
853,13.97,2
854,13.26,2
855,12.63,2
856,12.73,2
857,13.32,2
858,12.63,2
859,12.84,2
860,12.93,2
861,12.95,2
862,13.23,2
863,13.05,2
864,13.3,2
865,13.24,2
866,14.12,2
867,14.18,2
868,13.68,2
869,14.33,2
870,14.54,2
871,14.48,2
872,14.66,2
873,15.1,2
874,15.01,2
875,15.27,2
876,15.21,2
877,15.22,2
878,15.16,2
879,15.45,2
880,14.91,2
881,14.23,2
882,13.9,2
883,13.65,2
884,13.78,2
885,13.08,2
886,13.84,2
887,14.39,2
888,13.9,2
889,13.98,2
890,14.63,2
891,14.83,2
892,15.29,2
893,16.2,2
894,16.53,2
895,16.8,2
896,16.16,2
897,14.83,2
898,14.43,2
899,13.47,2
900,13.33,2
901,12.72,2
902,13.03,2
903,12.88,2
904,13.56,2
905,14.47,2
906,14.6,2
907,15.12,2
908,14.9,2
909,14.67,2
910,14.49,2
911,13.82,2
912,13.63,2
913,13.93,2
914,13.67,2
915,13.6,2
916,13.21,2
917,13.3,2
918,12.89,2
919,12.47,2
920,12.78,2
921,12.96,2
922,13.05,2
923,13.0,2
924,13.26,2
925,12.64,2
926,11.64,2
927,11.64,2
928,11.31,2
929,11.19,2
930,12.04,2
931,12.09,2
932,12.35,2
933,11.76,2
934,11.86,2
935,12.25,2
936,12.22,2
937,12.08,2
938,12.24,2
939,12.27,2
940,12.44,2
941,13.0,2
942,12.93,2
943,12.78,2
944,12.72,2
945,12.63,2
946,12.94,2
947,13.37,2
948,13.28,2
949,12.61,2
950,13.19,2
951,12.71,2
952,12.24,2
953,12.16,2
954,12.22,2
955,12.15,2
956,12.3,2
957,11.84,2
958,12.29,2
959,12.91,2
960,12.84,2
961,12.79,2
962,13.21,2
963,13.87,2
964,13.67,1
965,13.47,1
966,13.29,1
967,13.39,1
968,13.46,1
969,13.37,1
970,12.73,1
971,13.13,1
972,12.77,1
973,11.54,1
974,10.22,1
975,9.81,1
976,9.75,1
977,9.92,1
978,10.41,1
979,9.99,1
980,10.4,1
981,10.23,1
982,10.32,1
983,10.52,1
984,10.93,1
985,10.74,1
986,11.24,1
987,11.3,1
988,11.36,1
989,11.54,1
990,12.27,1
991,11.67,1
992,11.25,1
993,10.78,1
994,10.87,1
995,11.58,1
996,11.94,1
997,12.0,1
998,12.44,1
999,12.21,1
